Br5FIn2
1.0
  -0.00000002  -6.73266331  0.83943900
  5.87582598  -3.36633211  0.41971900
  0.00000000  0.00000000  23.18990600
  F  Br  In
  1  5  2
Direct
  -0.12931433  0.00059973  0.00481011   #F
  -0.85858496  0.02047587  0.16422533   #Br
  -1.62520738  -0.56464732  0.04176509   #Br
  -1.16146882  -0.54947311  0.16346885   #Br
  -0.43560411  -0.28475529  0.14536960   #Br
  -0.89934267  -0.29992950  0.02366584   #Br
  -0.82729463  -0.57130631  0.08451770   #In
  -1.23351686  -0.27809630  0.10261699   #In