Ge2O9PbSb2
1.0
  -7.21095796  -0.00000008  0.00000000
  3.60547841  6.24487264  0.00000000
  0.00000000  0.00000000  -25.09303500
  Pb  Ge  O  Sb
  1  2  9  2
Direct
  -0.25077201  1.07924686  0.89851718   #Pb
  0.32623554  0.59518646  0.89851718   #Ge
  -0.07546205  0.32556199  0.89851718   #Ge
  -0.11764624  0.97440303  0.95724411   #O
  -0.11764624  0.97440303  0.83979025   #O
  0.56877598  0.41102520  0.89851718   #O
  0.16105531  0.10608521  0.89851718   #O
  0.23868491  0.52659997  0.95724411   #O
  -0.12103719  0.49899230  0.95724411   #O
  -0.12103719  0.49899230  0.83979025   #O
  0.23868491  0.52659997  0.83979025   #O
  0.77016913  -0.38313836  0.89851718   #O
  -0.00000001  0.66666572  0.99547570   #Sb
  -0.00000001  0.66666572  0.80155866   #Sb