B2Hg3O5Se
1.0
  9.25835291  0.00000000  0.00000000
  4.62917645  8.01796929  0.00000000
  0.00000000  0.00000000  20.70902400
  B  Hg  Se  O
  2  3  1  5
Direct
  1.00000055  0.08931651  0.49994068   #B
  0.49999952  0.04465819  0.50005913   #B
  0.69093994  0.21920607  0.49999990   #Hg
  0.61812016  -0.35687182  0.49999990   #Hg
  0.19093997  0.27164044  0.49999990   #Hg
  0.99743403  -0.08118632  0.49994262   #Se
  1.13027120  0.09753060  0.49994262   #O
  0.87229490  0.25160512  0.49994262   #O
  0.37229478  0.02983083  0.50005719   #O
  0.63027109  -0.11398001  0.50005719   #O
  0.49743420  0.21812388  0.50005719   #O