Al4Bi4O12
1.0
  5.00126362  0.00000000  0.00000000
  0.00000000  8.02395910  0.00000000
  0.00000000  0.00000000  24.45091900
  Al  Bi  O
  4  4  12
Direct
  0.74141732  0.53091437  0.52573744   #Al
  0.75858160  0.03091431  0.52573744   #Al
  0.24141768  0.96908580  0.47426261   #Al
  0.25858196  0.46908574  0.47426261   #Al
  0.22678166  0.21826378  0.58051365   #Bi
  0.27321797  0.71826384  0.58051365   #Bi
  0.72678130  0.28173628  0.41948639   #Bi
  0.77321761  0.78173633  0.41948639   #Bi
  0.55498873  0.33965584  0.50633970   #O
  0.91127403  0.52893186  0.45449002   #O
  0.94501019  0.83965589  0.50633970   #O
  0.64605425  0.60124916  0.59241438   #O
  0.08872524  0.47106825  0.54551002   #O
  0.35394503  0.39875096  0.40758566   #O
  0.85394466  0.10124910  0.59241438   #O
  0.58872488  0.02893180  0.45449002   #O
  0.41127439  0.97106831  0.54551002   #O
  0.05498909  0.16034422  0.49366034   #O
  0.14605461  0.89875101  0.40758566   #O
  0.44501055  0.66034428  0.49366034   #O