Cl11FY4
1.0
  6.85596995  0.00000000  0.00000000
  0.00000000  11.87434155  0.00000000
  -8.79686709  0.00000000  25.00000000
  F  Cl  Y
  1  11  4
Direct
  -0.01575045  0.47244071  0.23453123   #F
  -0.01575045  0.11138521  0.23453123   #Cl
  -0.05735554  0.79191290  0.21989769   #Cl
  0.48424955  0.97244065  0.41046857   #Cl
  0.48424955  0.61138514  0.41046857   #Cl
  0.44264447  0.29191296  0.39583503   #Cl
  0.16480827  0.29191296  0.17954621   #Cl
  0.12320419  0.97244065  0.16491302   #Cl
  0.12320419  0.61138514  0.16491302   #Cl
  0.66480928  0.79191290  0.35548391   #Cl
  0.62320319  0.47244071  0.34085002   #Cl
  0.62320319  0.11138521  0.34085002   #Cl
  -0.19627363  0.95857624  0.11175328   #Y
  -0.19627363  0.62524955  0.11175328   #Y
  0.30372637  0.45857631  0.28769062   #Y
  0.30372637  0.12524962  0.28769062   #Y