O7P2Sb2Se
1.0
  0.00000000  4.77456000  -0.46067500
  -6.79788100  0.00000000  0.00000000
  0.00000000  0.00000000  23.21008700
  Se  O  P  Sb
  1  7  2  2
Direct
  -0.48772303  -0.72432235  0.85583636   #Se
  -0.48772303  -1.24618282  0.85583636   #O
  -0.05226823  -0.26991604  0.89160405   #O
  -0.38451754  -0.26595735  0.93263289   #O
  -0.55162726  -0.97605723  0.95113947   #O
  -0.21937795  -0.98001591  0.91011063   #O
  -0.11617176  0.00020946  0.98690618   #O
  -0.11617176  -0.52165101  0.98690618   #O
  -0.44152600  -0.98185741  0.89102486   #P
  -0.16236879  -0.26411595  0.95171768   #P
  -0.46738128  -0.27403517  0.84891220   #Sb
  -0.13651421  -0.97193810  0.99383132   #Sb