CaClFO
1.0
  5.72621580  0.00000000  0.00000000
  0.00000000  5.72694651  0.00000000
  0.00000000  0.00000000  24.26668200
  Ca  F  Cl  O
  2  1  3  8
Direct
  0.00000000  0.50000030  0.49999996   #Ca
  0.50000037  0.00000000  0.49999996   #Ca
  0.50000037  0.50000030  0.41220090   #F
  0.00000000  0.00000000  0.41220090   #Cl
  0.50000037  0.50000030  0.58779902   #Cl
  0.00000000  0.00000000  0.58779902   #Cl
  0.33943269  0.66056967  0.44932066   #O
  0.33943269  0.33943194  0.55067925   #O
  0.16056768  0.83943224  0.55067925   #O
  0.66056805  0.66056967  0.55067925   #O
  0.83943305  0.16056937  0.55067925   #O
  0.83943305  0.83943224  0.44932066   #O
  0.16056768  0.16056937  0.44932066   #O
  0.66056805  0.33943194  0.44932066   #O